% Logging successfully configured
=====UNKNOWN=====
% time elapsed: 1800.03 s
%%%mzn-stat: initTime=0.023535495
%%%mzn-stat: nodes=275936
%%%mzn-stat: restarts=0
%%%mzn-stat: peakDepth=98
%%%mzn-stat: solveTime=1799.696621467
%%%mzn-stat: variables=1829
%%%mzn-stat: propagators=1473
%%%mzn-stat: failures=275719
%%%mzn-stat: propagations=12430450
%%%mzn-stat: nogoods=275719
%%%mzn-stat: numAtomicConstraintsPropagated=0
%%%mzn-stat: circuitNumber1PropagationsTotal=2695325
%%%mzn-stat: circuitNumber1CircuitConflicts=275698
%%%mzn-stat: circuitNumber1AlldiffConflicts=0
%%%mzn-stat: circuitNumber1TotalFixedEdgesAtConflict=36686014
%%%mzn-stat: circuitNumber1NumberOfConflicts=275698
%%%mzn-stat: circuitNumber1GacPrunings=5177628
%%%mzn-stat: circuitNumber1PropagationsThatGacPruned=1593739
%%%mzn-stat: circuitNumber1TotalPruningHallSetSize=11452988
%%%mzn-stat: circuitNumber1NumberOfPruningExplanations=5177628
%%%mzn-stat: circuitNumber1MaxPruningHallSetSize=114
%%%mzn-stat: circuitNumber1TotalSccSizeAtPruning=7240864
%%%mzn-stat: circuitNumber1NumberOfSccPruningCalls=1593739
%%%mzn-stat: circuitNumber1TotalVarsInvolvedInPruning=4368271
%%%mzn-stat: circuitNumber1MaxValuesPrunedFromSingleVar=5
%%%mzn-stat: circuitNumber1HallCircuitChecks=10483290
%%%mzn-stat: circuitNumber1HallCircuitPrunings=298153
%%%mzn-stat: circuitNumber1CircuitPreventPrunings=1507480
%%%mzn-stat: AverageConflictSize=55.99749019835412
%%%mzn-stat: NumUnitNogoodsLearned=0
%%%mzn-stat: AverageLearnedNogoodLength=85.96838447840011
%%%mzn-stat: AverageBacktrackAmount=0
%%%mzn-stat: AverageLbd=85.96381460835126
%%%mzn-stat: 2AutonomousSearchNumBackupCalled=0
%%%mzn-stat: 2AutonomousSearchNumPredicatesRemoved=0
%%%mzn-stat: 2AutonomousSearchNumCalls=0
%%%mzn-stat: 2AutonomousSearchNumPredicatesAdded=6186
%%%mzn-stat: 2AutonomousSearchAverageSizeOfHeap=0
%%%mzn-stat: 2AutonomousSearchNumAssignedPredicatesEncountered=0
%%%mzn-stat-end
